SystemLabel ts_chain

NumberOfAtoms 12
NumberOfSpecies 1

%block ChemicalSpeciesLabel
 1  6  C
%endblock ChemicalSpeciesLabel

LatticeConstant 1.0 Ang
%block LatticeVectors
    17.6200      0.0000      0.0000
     0.0000     12.0000      0.0000
     0.0000      0.0000     12.0000
%endblock LatticeVectors

AtomicCoordinatesFormat Ang
%block AtomicCoordinatesAndAtomicSpecies
  0.0  5.0  15.24 1
  1.27  5.0  15.24 1
  2.54  5.0  15.24 1
  3.81  5.0  15.24 1
  5.08  5.0  15.24 1
  6.35  5.0  15.24 1 # vacuum here:
  10.0  5.0  15.24 1
  11.27  5.0  15.24 1
  12.54  5.0  15.24 1
  13.81  5.0  15.24 1
  15.08  5.0  15.24 1
  16.35  5.0  15.24 1
%endblock AtomicCoordinatesAndAtomicSpecies

PAO.BasisSize         SZ
PAO.EnergyShift       275 meV

MeshCutoff              50. Ry
XC.functional           LDA
XC.authors              PZ
SolutionMethod          negf


MinSCFIterations       3
MaxSCFIterations       200
DM.MixingWeight        0.05
DM.Tolerance           0.0001
DM.NumberPulay         6
DM.UseSaveDM           .true.
DM.MixSCF1             .true.

WriteMullikenPop                1
WriteDM                         T
WriteForces                     T


# Transiesta options
%block TS.ChemPots
  high
  low
%endblock TS.ChemPots
%block TS.ChemPot.high
  mu V
  contour.eq
    begin
      C-high
      T-high
    end
%endblock TS.ChemPot.high
%block TS.ChemPot.low
  mu 0. eV
  contour.eq
    begin
      C-low
      T-low
    end
%endblock TS.ChemPot.low

%block TS.Contour.C-high
  part circle
   from -40. eV + V to -10 kT + V
     points 34
      method g-legendre
%endblock TS.Contour.C-high
%block TS.Contour.T-high
  part tail
   from prev to inf
     points 12
      method g-fermi
%endblock TS.Contour.T-high
%block TS.Contour.C-low
  part circle
   from -40. eV to -10 kT
     points 34
      method g-legendre
%endblock TS.Contour.C-low
%block TS.Contour.T-low
  part tail
   from prev to inf
     points 12
      method g-fermi
%endblock TS.Contour.T-low

%block TS.Contours.nEq
  neq
%endblock TS.Contours.nEq
%block TS.Contour.nEq.neq
  part line
   from 0 - 5 kT to |V| + 5 kT
     delta 0.01 eV
      method mid-rule
%endblock TS.Contour.nEq.neq

%block TS.Elecs
  high
  low
%endblock TS.Elecs

%block TS.Elec.high
  HS ./ts_n_terminal_elec_x.HSX
  chemical-potential high
  semi-inf-direction -a1
  electrode-position 1
%endblock
%block TS.Elec.low
  HS ./ts_n_terminal_elec_x.HSX
  chemical-potential low
  semi-inf-direction +a1
  electrode-position end -1
%endblock

TBT.DOS.A T
TBT.DOS.Gf T

%block TBT.Contours
    line
%endblock TBT.Contours
%block TBT.Contour.line
  part line
     from -15. eV to 10. eV
      delta 0.01 eV
        method mid-rule
%endblock TBT.Contour.line
