SystemLabel ts_n_terminal_elec_x

# This is really deprecated, used for testing purposes
TS.HS.Save

NumberOfAtoms 4
NumberOfSpecies 1
LatticeConstant 1.0 Ang
AtomicCoordinatesFormat Ang
%block LatticeVectors
    5.08      0.0000      0.0000
    0.0000   12.0000      0.0000
    0.0000    0.0000     12.0000
%endblock LatticeVectors
%block AtomicCoordinatesAndAtomicSpecies
 0.00   0.0   0.0 1
 1.27   0.0   0.0 1
 2.54   0.0   0.0 1
 3.81   0.0   0.0 1
%endblock AtomicCoordinatesAndAtomicSpecies

%block ChemicalSpeciesLabel
 1  6  C
%endblock ChemicalSpeciesLabel
%block PS.Lmax
  C 2
%endblock

PAO.BasisType         split
PAO.BasisSize         SZ
PAO.SplitNorm         0.15
PAO.EnergyShift       275 meV

MeshCutoff              50. Ry
XC.functional           LDA
XC.authors              PZ

ElectronicTemperature   300 K
OccupationFunction      FD

MinSCFIterations       3
MaxSCFIterations       200
DM.MixingWeight        0.05
DM.Tolerance           0.0001
DM.NumberPulay         6
DM.UseSaveDM           T
DM.MixSCF1             T

%block kgrid_Monkhorst_Pack
     50    0    0    0.0
      0    1    0    0.0
      0    0    1    0.0
%endblock kgrid_Monkhorst_Pack

WriteMullikenPop                1
WriteDM                         T
WriteForces                     T
SaveHS                          T
