%include ../base_wat.fdf
SystemLabel     save_dm

DM.UseSaveDM T

