%include ../base_wat.fdf
SystemLabel     save_init_rho

SaveInitialChargeDensity T
DM.UseSaveDM F
