SystemName          2 Water molecules

PAO.BasisSize SZP
DM.UseSaveDM  F

LatticeConstant 1.0 Ang
%block LatticeVectors
3.0  0.0 0.0
0.0 10.0 0.0
0.0  0.0 5.0
%endblock LatticeVectors

AtomicCoordinatesFormat  Ang
%block AtomicCoordinatesAndAtomicSpecies
 0.000   0.000  0.000  1
 0.757   0.586  0.000  2
-0.757   0.586  0.000  2
 0.000   5.000  0.000  1
 0.757   4.414  0.000  2
-0.757   4.414  0.000  2
%endblock AtomicCoordinatesAndAtomicSpecies
