%include ../base_wat_smallbox.fdf
SystemLabel     filter_tol

%block ChemicalSpeciesLabel
 1  8  O
 2  1  H
%endblock ChemicalSpeciesLabel

FilterTol    0.008 Ry
MeshCutoff   200.0 Ry

