SystemName          Silicon
NumberOfAtoms       8
NumberOfSpecies     1

%block ChemicalSpeciesLabel
 1  14  Si
%endblock ChemicalSpeciesLabel

PAO.BasisSize SZP
DM.UseSaveDM  F

LatticeConstant 5.43 Ang
%block LatticeVectors
1.0 0.0 0.0
0.0 1.0 0.0
0.0 0.0 1.0
%endblock LatticeVectors

AtomicCoordinatesFormat Fractional
%block AtomicCoordinatesAndAtomicSpecies
  0.000000000000000       0.000000000000000       0.000000000000000     1
  0.250000000000000       0.250000000000000       0.250000000000000     1
  0.500000000000000       0.500000000000000       0.000000000000000     1
  0.750000000000000       0.750000000000000       0.250000000000000     1
  0.500000000000000       0.000000000000000       0.500000000000000     1
  0.000000000000000       0.500000000000000       0.500000000000000     1
  0.750000000000000       0.250000000000000       0.750000000000000     1
  0.250000000000000       0.750000000000000       0.750000000000000     1
%endblock AtomicCoordinatesAndAtomicSpecies
