SystemName          Si Quantum Dot with ELSI-ELPA (2-stage, GPU)
SystemLabel         si-qdot-elsi-elpa

%include ../quantum-dot-base.fdf

solution-method elsi
elsi-solver elpa
elsi-output-level 3
elsi-elpa-gpu 1

