SystemName          Si Quantum Dot with ELSI-ELPA
SystemLabel         si-qdot-elsi-elpa

%include ../quantum-dot-base.fdf

solution-method elsi
elsi-solver elpa
elsi-output-level 3

