%include ../base_si8.fdf
SystemLabel     si_default

