%include ../base_si8.fdf
SystemLabel     si_procy

Diag.ProcessorY 2

