SystemLabel ts_n_terminal_elec_z

%block kgrid_Monkhorst_Pack
    100    0    0    0.0
      0    1    0    0.0
      0    0    1    0.0
%endblock kgrid_Monkhorst_Pack

NumberOfAtoms 4
NumberOfSpecies 1
LatticeConstant 1.0 Ang
AtomicCoordinatesFormat Ang
%block LatticeVectors
    0.0000    0.0000      5.08
    0.0000   12.0000      0.0000
   12.0000    0.0000      0.0000
%endblock LatticeVectors
%block AtomicCoordinatesAndAtomicSpecies
 0.0   0.0   0.00 1
 0.0   0.0   1.27 1
 0.0   0.0   2.54 1
 0.0   0.0   3.81 1
%endblock AtomicCoordinatesAndAtomicSpecies

%block ChemicalSpeciesLabel
 1  6  C
%endblock ChemicalSpeciesLabel
%block PS.Lmax
  C 2
%endblock

PAO.BasisType         split
PAO.BasisSize         SZP
PAO.SplitNorm         0.15
PAO.EnergyShift       275 meV

MeshCutoff              250. Ry
XC.functional           LDA
XC.authors              PZ
SolutionMethod          diagon

ElectronicTemperature   300 K
OccupationFunction      FD

MinSCFIterations       3
MaxSCFIterations       200
SCF.Mixer.Weight       0.05
SCF.Mixer.History      6
SCF.DM.Tolerance       0.0001
DM.UseSaveDM           T

WriteMullikenPop                1
WriteDM                         T
WriteForces                     T
SaveHS                          T
