SystemName       QMonly
SystemLabel      QMonly

# Global system
NetCharge 0.0

# MD Options
MD.TypeOfRun         cg
MD.NumCGsteps         2
MD.VariableCell       F
MD.MaxForceTol        0.01 eV/Ang

# Output Options
WriteCoordinates   10
WriteForces        T
WriteCoorStep      T
WriteMDHistory     T
WriteCoorXmol      T
WriteDenchar       T

# QMMM Interaction
MM.Cutoff      10.0 Ang
QMMM.Cutoff    10.0 Ang

# QM Region
NumberOfAtoms    12
NumberOfSpecies  2

%block ChemicalSpeciesLabel
 1   1  H
 2   6  C
%endblock ChemicalSpeciesLabel

LatticeConstant   1.0 Ang
%block LatticeVectors
15.0     0.0     0.0
 0.0    15.0     0.0
 0.0     0.0    10.0
%endblock LatticeVectors

AtomicCoordinatesFormat  Ang
%block AtomicCoordinatesAndAtomicSpecies
   3.668  5.768  0.000   2
   4.899  6.450  0.000   2
   6.118  5.739  0.000   2
   3.686  4.361  0.000   2
   4.908  3.655  0.000   2
   6.174  4.313  0.000   2
   2.711  6.324  0.000   1
   2.736  3.792  0.000   1
   4.805  2.555  0.000   1
   4.922  7.557  0.000   1
   7.023  6.374  0.000   1
   7.425  3.585  0.000   1
%endblock AtomicCoordinatesAndAtomicSpecies

%block QM.AtomTypes
C#
C#
C#
C#
C#
C#
H#
H#
H#
H#
H#
H#
%endblock QM.AtomTypes
