SystemLabel         reparam

Reparametrize.Pseudos F

%block ChemicalSpeciesLabel
 1  14  Si.psf
%endblock ChemicalSpeciesLabel

%include ../base_si2.fdf
