%include ../base_graph.fdf
SystemLabel     am05

xc.functional   GGA
xc.authors      AM05

