%include ../base_graph.fdf
SystemLabel     c6

xc.functional   GGA
xc.authors      PBE
MM.Cutoff 20.0 Ang
%block MM.Potentials
 1  1 C6 15.19 1.56
%endblock MM.Potentials

