SystemName      (IrO2) Tetragonal structure
SystemLabel	IrO2_dftu_so

NumberOfSpecies 2
NumberOfAtoms	6
%block ChemicalSpeciesLabel
  1 77 Ir_dftu_so
  2 8  O_dftu_so
%endblock ChemicalSpeciesLabel

%block PS.lmax
   Ir_dftu_so    3
    O_dftu_so    3
%endblock PS.lmax

LatticeConstant 1.0 Ang
%block LatticeVectors  
   4.506946   0.000000   0.000000
   0.000000   4.506946   0.000000
   0.000000   0.000000   3.158945
%endblock LatticeVectors

AtomicCoordinatesFormat Fractional
%block AtomicCoordinatesAndAtomicSpecies
   0.00000000   0.00000000   0.00  1    
   0.50000000   0.50000000   0.50  1    
   0.30811525   0.30811525   0.00  2     
   0.69188475   0.69188475   0.00  2     
   0.19188475   0.80811525   0.50  2     
   0.80811525   0.19188475   0.50  2  
%endblock AtomicCoordinatesAndAtomicSpecies


%block kgrid_Monkhorst_Pack
   2  0  0   0.5
   0  2  0   0.5
   0  0  1   0.5
%endblock kgrid_Monkhorst_Pack

xc.functional    GGA
xc.authors       PBEsol
MeshCutoff       50 Ry

MaxSCFIterations        300
SCF.Mixer.Weight        0.05
SCF.Mixer.History       10 
SCF.Mixer.Kick          30
SCF.Mixer.Kick.Weight   1.0
SCF.MustConverge        .false.
DM.UseSaveDM            F

ElectronicTemperature   1 K


%block PAO.Basis
Ir_dftu_so   2     
n=6   0   1   E   100.00000     4.00000
     6.00000 
     1.00000 
n=5   2   1   E   100.00000     3.50000
     4.50000 
     1.00000 
O_dftu_so    2    
n=2   0   1   E   100.00000     4.00000
     6.00000
     1.00000
n=2   1   1   E   100.00000     4.00000
     5.50000
     1.00000
%endblock PAO.Basis

Spin spin-orbit
Spin.OrbitStrength  1.0

%block DM.InitSpin
 1  +3.   0.   0.
 2  -3.   0.   0.
%endblock DM.InitSpin

LDAU.ProjectorGenerationMethod      1
%block LDAU.proj
Ir_dftu_so   1 # number of shells of projectors
n=5 2          # n, l
2.000 0.500    # U(eV), J(eV)
3.000          # rc, \omega (default values)
%endblock LDAU.proj

WriteForces       T
WriteIonPlotFiles T
WriteMullikenPop  1
