%include ../base_graph.fdf
SystemLabel     lyp

xc.functional   GGA
xc.authors      LYP

