%include ../base_graph.fdf
SystemLabel     pbe

xc.functional   GGA
xc.authors      PBE

