%include ../base_graph.fdf
SystemLabel     pbesol

xc.functional   GGA
xc.authors      PBEsol

