SystemName          FeN in ZB structure

NumberOfAtoms       2
NumberOfSpecies     2
%block ChemicalSpeciesLabel
 1  26 Fe
 2   7 N
%endblock ChemicalSpeciesLabel

LatticeConstant    4.31 Ang
%block LatticeVectors
  0.500  0.500  0.000
  0.000  0.500  0.500
  0.500  0.000  0.500
%endblock LatticeVectors

AtomicCoordinatesFormat  Fractional
%block AtomicCoordinatesAndAtomicSpecies
    0.    0.    0.     1  Fe       1
    0.25  0.25  0.25   2  N        2
%endblock AtomicCoordinatesAndAtomicSpecies

DM.MixingWeight     0.3
DM.NumberPulay      3
DM.UseSaveDM        F
PAO.BasisSize       SZP
PAO.EnergyShift     300 meV
MeshCutoff          50.0 Ry
kgridcutoff          5. Ang
