%include ../base_fen.fdf
SystemLabel     charge_partial
