%include ../base_ge.fdf
SystemLabel       ge_bands

