%include ../base_ge.fdf
SystemLabel       ge_bands_so_bpoints

Spin spin-orbit
BandLinesScale  pi/a
%block BandPoints
  0. 0. 0.            # Gamma
  2. 0. 0.            # X
  2. 1. 0.            # W
%endblock BandPoints

WaveFuncKPointsScale  pi/a
%block WaveFuncKPoints
0.000  0.000  0.000  from 1 to 10   # eigenstates 1-10 of Gamma
2.000  0.000  0.000  1 3 5          # eigenstates 1,3,5 of X
1.500  1.500  1.500                 # all eigenstates of K
%endblock WaveFuncKPoints

