%include ../base_ge.fdf
SystemLabel       ge_bands_so

Spin spin-orbit

