#
# To run this example, be sure to define
#
# export SIESTA_PS_PATH=/path/to/pseudos
#
# (typically the Tests/Pseudos directory of the Siesta distribution)
#
# or to copy a O.psf or O.psml file in the working directory.
#
#
SystemName          Oxygen
NumberOfAtoms       1

%block ChemicalSpeciesLabel
 1  8  O      # Species index, atomic number, species label
 2  -8  Os O  # Species index, atomic number, species label, pseudo label
%endblock ChemicalSpeciesLabel

