SystemName              FePt-L1_0
SystemLabel             FePtxz
NumberOfAtoms           2
NumberOfSpecies         2

%block Chemical_Species_label
   1    26      Fe_fept_SOC
   2    78      Pt_fept_SOC
%endblock Chemical_Species_label

PAO.EnergyShift         100 meV
PAO.OldStylePolOrbs     F
Restricted.Radial.Grid  F
%Block PAO.Basis
 Fe_fept_SOC   2
   n=4   0   2   P
    0.0   0.0
   n=3   2   2
    0.0   0.0
 Pt_fept_SOC   2
   n=6   0   2   P
    0.0   0.0
   n=5   2   2
    0.0   0.0
%EndBlock PAO.Basis

LatticeConstant  1.0 Ang
%block LatticeVectors
    3.792000000    0.000000000    0.000000000
    0.000000000    2.793068700    0.000000000
    0.000000000    0.000000000    2.793068700
%endblock LatticeVectors

AtomicCoordinatesFormat NotScaledCartesianAng
%block AtomicCoordinatesAndAtomicSpecies
    0.000000000   1.396535500    1.396535500   1   
    1.896000000   0.000000000    0.000000000   2   
%endblock AtomicCoordinatesAndAtomicSpecies

Spin SO

%block kgrid_Monkhorst_Pack
  11   0   0    0.0
   0  21   0    0.0
   0   0  21    0.0
%endblock kgrid_Monkhorst_Pack

xc.functional           GGA
xc.authors              PBE
MeshCutoff              1400. Ry
ElectronicTemperature   1 meV

DM.UseSaveDM            T
MaxSCFIterations        600
SCF.DM.Tolerance        1.0E-5
SCF.Mix.First           F
SCF.Mixer.Weight        0.005
SCF.Mixer.History       8
SCF.Mixer.Kick          25

MullikenInSCF   T
WriteForces     T
WriteCoorStep   T
