SystemName          Linear Fe3 cluster
NumberOfAtoms       3
NumberOfSpecies     1

%block ChemicalSpeciesLabel
 1  26  Fe_nc
%endblock ChemicalSpeciesLabel

LatticeConstant    1.0 Bohr
%block LatticeVectors
 12.000   0.000   0.000
  0.000  12.000   0.000
  0.000   0.000  20.000
%endblock LatticeVectors

AtomicCoordinatesFormat  NotScaledCartesianBohr
%block AtomicCoordinatesAndAtomicSpecies
  0.000   0.000   3.644  1
  0.000   0.000   0.000  1
  0.000   0.000  -3.644  1
%endblock AtomicCoordinatesAndAtomicSpecies

MeshCutoff        100. Ry

DM.MixingWeight         0.01
DM.NumberPulay          8
SCF.MustConverge        F
MaxSCFIterations        20
DM.UseSaveDM            F

WriteMullikenPop  1

PAO.BasisSize SZP

%block DM.InitSpin
 1  +3.00     0.   0.
 2  +1.50    90.   0.
 3  +3.00   180.   0.
%endblock DM.InitSpin


