%include ../base_fe3.fdf
SystemLabel         fe_noncol

Spin non-collinear

