
SystemName         elec_fe_spin_spiral
SystemLabel        elec_fe_spin_spiral

==================================================
==================================================
# SPECIES AND BASIS

# Number of species 
NumberOfSpecies   1
%block ChemicalSpeciesLabel
  1  26  Fe
%endblock ChemicalSpeciesLabel

PAO.BasisSize    SZP
PAO.BasisType split
%block PAO.Basis
Fe                    2
 n=4   0   1
   6.800
   1.000
 n=3   2   1
   5.300
   1.000
%endblock PAO.Basis

==================================================
==================================================
# K-points

%block kgrid.MonkhorstPack
  1  0    0 0.
  0  1    0 0.
  0  0   36 0.
%endblock kgrid.MonkhorstPack

==================================================
==================================================
# UNIT CELL AND ATOMIC POSITIONS

# UNIT CELL
LatticeConstant    3.644 Bohr
%block LatticeVectors
 12.000   0.000   0.000
  0.000  12.000   0.000
  0.000   0.000   4.000
%endblock LatticeVectors

NumberofAtoms  4
AtomicCoordinatesFormat  ScaledCartesian
%block AtomicCoordinatesAndAtomicSpecies
  0.000   0.000   0.500  1    #  1
  0.000   0.000   1.500  1    #  2
  0.000   0.000   2.500  1    #  3
  0.000   0.000   3.500  1    #  4
%endblock AtomicCoordinatesAndAtomicSpecies

# Format: atom, spin, theta, phi
# ==============================
#  spin : Magnitude of spin moment
# theta : Polar angle (angle between the z-axis and spin direction)
#   phi : Azimuthal angle 
%block DM.InitSpin
 1  +2.220     0.   0.  # L
 2  +2.220    90.   0.  # L
 3  +2.220   180.   0.  # L
 4  +2.220   270.   0.  # L
%endblock DM.InitSpin
==================================================
==================================================
# General variables

ElectronicTemperature   40 meV
MeshCutoff            200. Ry
XC.functional     GGA
XC.authors        PBE
Spin              spin-orbit
SolutionMethod Diagon

==================================================
==================================================
# SCF variables

SCF.Mix                 Hamiltonian  # (default) Hamiltonian
SCF.Mix.First           T            # (default) true
SCF.Mixer.Method        Pulay        # (default) Pulay
SCF.Mixer.Weight        0.05         # (default) 0.25
SCF.Mixer.History       7            # (default) 2
SCF.DM.Converge         T            # (default) true
SCF.DM.Tolerance        2.0d-4       # (default) 1.0d-4
SCF.H.Converge          F           # (default) true

==================================================
==================================================
# Output variables


WriteOrbMom      true
WriteMullikenPop 1
