%include ../base_mgco3.fdf
SystemLabel      broyden

MD.TypeOfRun 			    Broyden
MD.Broyden.History.Steps	    6
MD.Broyden.Initial.Inverse.Jacobian 1.0

