%include ../base_mgco3.fdf
SystemLabel      cg

MD.TypeOfRun  cg

