%include ../base_mgco3.fdf
SystemLabel      cg_vc

MD.TypeOfRun      cg
MD.VariableCell   T

