%include ../base_benzene_zm.fdf
SystemLabel      zm_broyden

MD.TypeOfRun     broyden

