%include ../base_benzene_zm.fdf
SystemLabel      zm_fire

MD.TypeOfRun     fire

