
SystemName  Au electrode (100)
SystemLabel ts_au_100_elec_1x1

NumberOfAtoms   4
NumberOfSpecies 1
%block ChemicalSpeciesLabel
  1  79 Au 
%endblock ChemicalSpeciesLabel

PAO.BasisSize    SZP
PAO.EnergyShift  0.005 Ry
XC.functional    GGA
XC.authors       PBE

%block kgrid_Monkhorst_Pack
 6    0    0    0.0
 0    6    0    0.0
 0    0    10   0.0
%endblock kgrid_Monkhorst_Pack

LatticeConstant 1.0 Ang
%block LatticeVectors
     2.88372      0.00000     0.00000
     0.00000      2.88372     0.00000
     0.00000      0.00000     8.15640
%endblock LatticeVectors

AtomicCoordinatesFormat  Ang
%block AtomicCoordinatesAndAtomicSpecies
     0.00000      0.00000      0.00000 1
     1.44186      1.44186      2.03910 1
     0.00000      0.00000      4.07820 1
     1.44186      1.44186      6.11730 1
%endblock AtomicCoordinatesAndAtomicSpecies

MaxSCFIterations      300
SCF.Mix.First         T
SCF.Mixer.Weight      0.05
SCF.Mixer.History     5
DM.UseSaveDM          T

MD.UseSaveXV          T

# Output variables
WriteMullikenPop                1
SaveElectrostaticPotential      T
WriteCoorXmol                   T
WriteMDXmol                     T
WriteMDhistory                  F
WriteEigenvalues                yes
