%include ../water_box.fdf
SystemLabel         charge_confinement
NumberOfAtoms       3
NumberOfSpecies     2

%block ChemicalSpeciesLabel
 1  8  O
 2  1  H
%endblock ChemicalSpeciesLabel

%block PAO.Basis
O    3
n=2   0   3   E   50. 8.0
    8.0   3.5   2.0
n=2   1   3   Q   0.0 0.0 0.1  E   10. 8.0
    8.0   3.5   2.0
n=3   2   1   E   50. 9.0 Q  8.5 0.4
    8.0
H    2
n=1   0   3   E   50. 8.0
    8.0   3.5   2.0
n=2   1   1   E   50. 9.0 Q  5.5 0.5
    8.0
%endblock PAO.Basis
AtomicCoordinatesFormat  Ang
%block AtomicCoordinatesAndAtomicSpecies
 0.000  0.000  0.000  1
 0.757  0.586  0.000  2
-0.757  0.586  0.000  2
%endblock AtomicCoordinatesAndAtomicSpecies
