%include ../base_fe.fdf
SystemLabel       pdos_gamma

PDOS.kgrid.MonkhorstPack [1 1 1]
%block ProjectedDensityOfStates
EF -5.00 5.00 0.200000 1000 eV
%endblock ProjectedDensityOfStates

