%include ../base_fe.fdf
SystemLabel       pdos_kp_nc

Spin non-colinear
%block DM.InitSpin
    1 + 25.0 65.0
%endblock DM.InitSpin
Diag.ParallelOverK True

PDOS.kgrid.MonkhorstPack [10 10 10]
%block ProjectedDensityOfStates
EF -5.00 5.00 0.200000 1000 eV
%endblock ProjectedDensityOfStates

