SystemName              SOC FePt X-alignment x
SystemLabel             FePt-X-X

Spin  Spin-Orbit
%block DM.InitSpin
 1  +1.  90.  0.
 2  +1.  90.  0.
%endblock DM.InitSpin

NumberOfAtoms           2
NumberOfSpecies         2
%block Chemical_Species_label
        1       26      Fe_fept_SOC
        2       78      Pt_fept_SOC
%endblock Chemical_Species_label

PAO.EnergyShift  100 meV
PAO.BasisSize    SZP

LatticeConstant  1.0 Ang
%block LatticeVectors
    3.792000000    0.000000000    0.000000000
    0.000000000    2.793068700    0.000000000
    0.000000000    0.000000000    2.793068700
%endblock LatticeVectors

AtomicCoordinatesFormat NotScaledCartesianAng
%block AtomicCoordinatesAndAtomicSpecies
   0.000000000   1.396535500    1.396535500    1
   1.896000000   0.000000000    0.000000000    2
%endblock AtomicCoordinatesAndAtomicSpecies

%block kgrid_Monkhorst_Pack
   1   0   0    0.0
   0   1   0    0.0
   0   0   1    0.0
%endblock kgrid_Monkhorst_Pack

XC.functional           GGA
XC.authors              PBE

MeshCutoff              50. Ry

SolutionMethod          diagon
ElectronicTemperature   50 meV

MaxSCFIterations        15
SCF.MustConverge false

Diag.ParallelOverK true

DM.MixingWeight         0.01
DM.NumberPulay          6
DM.UseSaveDM            F
DM.NumberKick           50

WriteMullikenPop       1
WriteForces            T
