SystemName   restraints.siesta
SystemLabel  restraints.siesta

# Global system
NetCharge 0.0
LatticeConstant   1.0 Ang
%block LatticeVectors
18.621   0.0      0.0
 0.0    18.621    0.0
 0.0     0.0     18.621
%endblock LatticeVectors

# DFT Options
XC.functional        LDA
MaxSCFIterations     100
MeshCutoff           5 Ry
DM.MixingWeight      0.08
DM.NumberPulay       3
DM.UseSaveDM         F

# MD Options
MD.TypeOfRun               qmmm
MD.FinalTimeStep              5
MD.LengthTimeStep        0.5 fs
MD.TargetTemperature    300.0 K
MD.InitialTemperature   300.0 K
MD.TauRelax             10.0 fs

# QM-Region relevant parameters
NumberOfAtoms    3
NumberOfSpecies  2
%block ChemicalSpeciesLabel
 1   1  H
 2   8  O
%endblock ChemicalSpeciesLabel

AtomicCoordinatesFormat  Ang
%block AtomicCoordinatesAndAtomicSpecies
   10.610   8.630   9.201   2
   10.201   7.891   9.731   1
   11.251   9.141   9.781   1
%endblock AtomicCoordinatesAndAtomicSpecies

PAO.BasisSize SZ

# QMMM Options
QMMM.Enabled T
QMMM.Driver SIESTA_DRIVER
QMMM.Driver.Type pipe
QMMM.Driver.QMRegionFile restraints.siesta.coords
QMMM.Driver.MMChargeFile restraints.siesta.pc
QMMM.Driver.ForceOutFile restraints.siesta.forces
QMMM.Cutoff           4.0000000 Ang
QMMM.DensityCut       0.0000010 Ang
QMMM.CoulombType 2
WriteXML .false.
