%include ../base_si2.fdf
SystemLabel       born

CDF.Save
SaveHS
Write.HS.History
BornCharge T
%block PolarizationGrids
7  3  3
3  7  3
3  3  7
%endblock PolarizationGrids

