%include ../base_si2.fdf
SystemLabel       born_nc

Spin non-collinear
BornCharge T
%block PolarizationGrids
7  3  3
3  7  3
3  3  7
%endblock PolarizationGrids

